     Program PWSCF v.7.0 starts on 13Oct2022 at  4:55:58

     K-points division:     npool     =      20
     R & G space division:  proc/nbgrp/npool/nimage =      60

     Reading input from CeO2.in

     Current dimensions of program PWSCF are:
     Max number of different atomic species (ntypx) = 10
     Max number of k-points (npk) =  40000
     Max angular momentum in pseudopotentials (lmaxx) =  4
     file O.pbe-n-kjpaw_psl.0.1.UPF: wavefunction(s)  2P renormalized
     Found identity + (  0.0000  0.0000 -0.5000) symmetry
     This is a supercell, fractional translations are disabled
     Message from routine setup:
     using ibrav=0 with symmetry is DISCOURAGED, use correct ibrav instead

     Subspace diagonalization in iterative solution of the eigenvalue problem:
     one sub-group per band group will be used

     Using Slab Decomposition

     bravais-lattice index     =            0
     lattice parameter (alat)  =      14.6116  a.u.
     unit-cell volume          =    2205.8760 (a.u.)^3
     number of atoms/cell      =           24
     number of atomic types    =            2
     number of electrons       =       192.00
     number of Kohn-Sham states=          115
     kinetic-energy cutoff     =      50.0000  Ry
     charge density cutoff     =     400.0000  Ry
     scf convergence threshold =      1.0E-04
     mixing beta               =       0.4000
     number of iterations used =            8  plain     mixing
     Exchange-correlation= SLA  PW   PBX  PBC
                           (   1   4   3   4   0   0   0)

     celldm(1)=  14.611631  celldm(2)=   0.000000  celldm(3)=   0.000000
     celldm(4)=   0.000000  celldm(5)=   0.000000  celldm(6)=   0.000000

     crystal axes: (cart. coord. in units of alat)
               a(1) = (   1.000000   0.000000   0.000000 )
               a(2) = (   0.500000   0.866025   0.000000 )
               a(3) = (   0.500000   0.288675   0.816497 )

     reciprocal axes: (cart. coord. in units 2 pi/alat)
               b(1) = (  1.000000 -0.577350 -0.408248 )
               b(2) = (  0.000000  1.154700 -0.408248 )
               b(3) = (  0.000000  0.000000  1.224745 )

     PseudoPot. # 1 for Ce read from file:
     ./pseudo/Ce.GGA-PBE-paw-v1.0.UPF
     MD5 check sum: f2b950f613061344c13339c8d844425d
     Pseudo is Projector augmented-wave + core cor, Zval = 12.0
     Generated using ATOMPAW code
     Shape of augmentation charge: BESSEL
     Using radial grid of 1102 points,  8 beta functions with:
                l(1) =   0
                l(2) =   0
                l(3) =   1
                l(4) =   1
                l(5) =   2
                l(6) =   2
                l(7) =   3
                l(8) =   3
     Q(r) pseudized with 0 coefficients

     PseudoPot. # 2 for O  read from file:
     ./pseudo/O.pbe-n-kjpaw_psl.0.1.UPF
     MD5 check sum: 0234752ac141de4415c5fc33072bef88
     Pseudo is Projector augmented-wave + core cor, Zval =  6.0
     Generated using "atomic" code by A. Dal Corso  v.5.0.99 svn rev. 10869
     Shape of augmentation charge: BESSEL
     Using radial grid of 1095 points,  4 beta functions with:
                l(1) =   0
                l(2) =   0
                l(3) =   1
                l(4) =   1
     Q(r) pseudized with 0 coefficients

     atomic species   valence    mass     pseudopotential
        Ce            12.00   140.11600     Ce( 1.00)
        O              6.00    15.99940     O ( 1.00)

     12 Sym. Ops., with inversion, found

   Cartesian axes

     site n.     atom                  positions (alat units)
         1           Ce  tau(   1) = (   0.0000000   0.0000000   0.0000000  )
         2           Ce  tau(   2) = (   0.2500000   0.1443376   0.4082483  )
         3           Ce  tau(   3) = (   0.2500000   0.4330127   0.0000000  )
         4           Ce  tau(   4) = (   0.4999999   0.5773503   0.4082483  )
         5           Ce  tau(   5) = (   0.5000000   0.0000000   0.0000000  )
         6           Ce  tau(   6) = (   0.7500000   0.1443376   0.4082483  )
         7           Ce  tau(   7) = (   0.7500000   0.4330127   0.0000000  )
         8           Ce  tau(   8) = (   0.9999999   0.5773503   0.4082483  )
         9           O   tau(   9) = (   0.7500000   0.4330127   0.3061862  )
        10           O   tau(  10) = (   0.9999999   0.5773503   0.7144345  )
        11           O   tau(  11) = (   0.9999999   0.8660254   0.3061862  )
        12           O   tau(  12) = (   1.2499999   1.0103630   0.7144345  )
        13           O   tau(  13) = (   1.2500000   0.4330127   0.3061862  )
        14           O   tau(  14) = (   1.4999999   0.5773503   0.7144345  )
        15           O   tau(  15) = (   1.4999999   0.8660254   0.3061862  )
        16           O   tau(  16) = (   1.7499999   1.0103630   0.7144345  )
        17           O   tau(  17) = (   0.2500000   0.1443376   0.1020621  )
        18           O   tau(  18) = (   0.5000000   0.2886751   0.5103104  )
        19           O   tau(  19) = (   0.5000000   0.5773503   0.1020621  )
        20           O   tau(  20) = (   0.7499999   0.7216879   0.5103104  )
        21           O   tau(  21) = (   0.7500000   0.1443376   0.1020621  )
        22           O   tau(  22) = (   1.0000000   0.2886751   0.5103104  )
        23           O   tau(  23) = (   1.0000000   0.5773503   0.1020621  )
        24           O   tau(  24) = (   1.2499999   0.7216879   0.5103104  )

     number of k points=    20  Methfessel-Paxton smearing, width (Ry)=  0.0100
                       cart. coord. in units 2pi/alat
        k(    1) = (   0.1250000  -0.0721688  -0.0510310), wk =   0.0625000
        k(    2) = (   0.1250000  -0.0721688   0.2551552), wk =   0.0625000
        k(    3) = (   0.1250000  -0.0721688  -0.6634034), wk =   0.0625000
        k(    4) = (   0.1250000  -0.0721688  -0.3572172), wk =   0.0625000
        k(    5) = (   0.1250000   0.2165064  -0.1530931), wk =   0.1250000
        k(    6) = (   0.1250000   0.2165064  -0.7654655), wk =   0.1250000
        k(    7) = (   0.1250000  -0.6495190   0.1530931), wk =   0.1250000
        k(    8) = (   0.1250000  -0.6495190   0.4592793), wk =   0.1250000
        k(    9) = (   0.1250000  -0.6495190  -0.4592793), wk =   0.1250000
        k(   10) = (   0.1250000  -0.6495190  -0.1530931), wk =   0.1250000
        k(   11) = (   0.1250000  -0.3608439   0.0510310), wk =   0.1250000
        k(   12) = (   0.1250000  -0.3608439   0.3572172), wk =   0.1250000
        k(   13) = (   0.1250000  -0.3608439  -0.5613414), wk =   0.1250000
        k(   14) = (   0.1250000  -0.3608439  -0.2551552), wk =   0.1250000
        k(   15) = (   0.3750000  -0.2165063  -0.1530931), wk =   0.0625000
        k(   16) = (   0.3750000  -0.2165063   0.1530931), wk =   0.0625000
        k(   17) = (   0.3750000  -0.2165063  -0.7654655), wk =   0.0625000
        k(   18) = (   0.3750000  -0.2165063  -0.4592793), wk =   0.0625000
        k(   19) = (   0.3750000  -0.5051814  -0.0510310), wk =   0.1250000
        k(   20) = (   0.3750000  -0.5051814   0.2551552), wk =   0.1250000

     Check: negative core charge=   -0.000002

     Initial potential from superposition of free atoms

     starting charge     191.9441, renormalised to     192.0000
     Starting wfcs are  320 randomized atomic wfcs
     Checking if some PAW data can be deallocated...

     Self-consistent Calculation

     iteration #  1     ecut=    50.00 Ry     beta= 0.40
     Davidson diagonalization with overlap
     ethr =  1.00E-02,  avg # of iterations =  1.0

     total energy              =   -4520.55523341 Ry
     estimated scf accuracy    <      13.45033375 Ry

     iteration #  2     ecut=    50.00 Ry     beta= 0.40
     Davidson diagonalization with overlap
     ethr =  7.01E-03,  avg # of iterations =  5.9
     Minimization algorithm failed to find Fermi energy: reverting to bisection
     Possible cause: smearing is larger than the electronic band-gap.

[...]

     iteration # 12     ecut=    50.00 Ry     beta= 0.40
     Davidson diagonalization with overlap
     c_bands:  1 eigenvalues not converged
     ethr =  6.19E-05,  avg # of iterations = 19.2

[...]

     total energy              =   -4526.71793620 Ry
     estimated scf accuracy    <       0.00083569 Ry

     iteration # 20     ecut=    50.00 Ry     beta= 0.40
     Davidson diagonalization with overlap
     ethr =  3.87E-07,  avg # of iterations =  5.3

     End of self-consistent calculation

          k = 0.1250-0.0722-0.0510 ( 13242 PWs)   bands (ev):

   -22.0091 -21.8410 -21.8318 -21.8317 -21.8312 -21.7752 -21.7752 -21.7747
    -8.0844  -8.0844  -8.0814  -7.7789  -7.7786  -7.7761  -7.7518  -5.9498
    -5.8022  -5.8021  -5.7986  -5.7455  -5.7455  -5.7420  -5.5880  -4.8607
    -4.7273  -4.7268  -4.7264  -4.5261  -4.5261  -4.5246  -4.4295  -4.4292
    -4.4287  -4.4084  -4.4081  -4.2133  -4.2125  -4.2113  -4.2084  -4.2080
    -4.0362  -1.9065  -1.8863  -1.8856  -1.8833  -1.2718  -1.2718  -1.2693
     6.7596   6.7596   6.7601   6.8142   6.8143   6.8753   7.6072   7.6073
     7.6752   7.6757   7.6780   7.6836   7.6852   7.6854   9.0826   9.0829
     9.0832   9.1135   9.1650   9.1652   9.1671   9.1814   9.1830   9.1832
     9.2487   9.2491   9.2492   9.3388   9.7028   9.7029   9.7132   9.7152
     9.7153   9.7685   9.7700   9.7703   9.8169   9.8170   9.8191   9.8545
     9.8548   9.8564   9.8767   9.8887   9.8891   9.8892   9.9001   9.9003
    12.3548  12.3572  12.3589  12.3890  12.4011  12.4047  12.4054  12.4727
    12.4745  12.4754  12.4803  12.4833  12.4846  12.5131  12.5153  12.5213
    12.5233  12.5254  12.5273

[...]

          k = 0.3750-0.5052 0.2552 ( 13166 PWs)   bands (ev):

   -21.9065 -21.8865 -21.8634 -21.8497 -21.8060 -21.7958 -21.7855 -21.7818
    -7.5039  -7.4818  -7.4731  -7.4576  -7.4402  -7.3743  -7.2525  -7.1637
    -7.1488  -7.1072  -7.0265  -6.8415  -6.2055  -5.9218  -5.7909  -5.5562
    -4.6758  -4.6650  -4.5658  -4.5564  -4.5063  -4.4699  -4.3950  -4.3566
    -4.0325  -4.0038  -3.7239  -3.5756  -2.9939  -2.8559  -2.8392  -2.8076
    -2.6698  -2.6530  -2.4282  -2.3804  -2.3666  -2.2985  -2.2836  -2.2431
     7.4722   7.5050   7.5511   7.5861   7.7190   7.7518   7.7756   7.8136
     7.8654   7.8980   7.9096   8.0145   8.1126   8.1197   8.1743   8.2367
     8.3143   8.3155   8.3336   8.4430   8.4502   8.5853   8.6118   8.7010
     8.7961   8.8678   8.8890   8.9495   9.2831   9.3822   9.4068   9.4722
     9.4905   9.5461   9.5857   9.6583   9.7066   9.7093   9.9452  10.0325
    10.2108  10.2115  10.2167  10.2790  10.3101  10.3642  10.3835  10.3895
    12.4106  12.4116  12.4161  12.4247  12.4711  12.4819  12.5102  12.5208
    12.5253  12.5274  12.5385  12.5458  12.5608  12.5666  12.5826  12.6055
    12.6083  12.6130  12.6212

     the Fermi energy is    11.6872 ev

!    total energy              =   -4526.71804903 Ry

     total all-electron energy =     -6268.268328 Ry
     estimated scf accuracy    <       0.00007376 Ry
     smearing contrib. (-TS)   =       0.00000000 Ry
     internal energy E=F+TS    =   -4526.71804903 Ry

     The total energy is F=E-TS. E is the sum of the following terms:
     one-electron contribution =     -99.13893463 Ry
     hartree contribution      =     198.78016180 Ry
     xc contribution           =    -202.41749189 Ry
     ewald contribution        =   -1006.38839996 Ry
     one-center paw contrib.   =   -3417.55338435 Ry

     convergence has been achieved in  20 iterations

     Writing all to output data dir ./out/CeO2.save/

     General routines

     Parallel routines

   This run was terminated on:   4:56:10  13Oct2022

   JOB DONE.

                  Resource Usage on 2022-10-13 04:56:14:
   Job Id:             60254202.gadi-pbs
   Project:            jx00
   Exit Status:        0
   Service Units:      13.33
   NCPUs Requested:    1200                   NCPUs Used: 1200