     Program PWSCF v.7.0 starts on 13Oct2022 at  0:19:14

     K-points division:     npool     =      20
     R & G space division:  proc/nbgrp/npool/nimage =       2

     Reading input from CeO2.in

     Current dimensions of program PWSCF are:
     Max number of different atomic species (ntypx) = 10
     Max number of k-points (npk) =  40000
     Max angular momentum in pseudopotentials (lmaxx) =  4
     file O.pbe-n-kjpaw_psl.0.1.UPF: wavefunction(s)  2P renormalized
     Found identity + (  0.0000  0.0000 -0.5000) symmetry
     This is a supercell, fractional translations are disabled
     Message from routine setup:
     using ibrav=0 with symmetry is DISCOURAGED, use correct ibrav instead

     Subspace diagonalization in iterative solution of the eigenvalue problem:
     a serial algorithm will be used

     Using Slab Decomposition

     bravais-lattice index     =            0
     lattice parameter (alat)  =      14.6116  a.u.
     unit-cell volume          =    2205.8760 (a.u.)^3
     number of atoms/cell      =           24
     number of atomic types    =            2
     number of electrons       =       192.00
     number of Kohn-Sham states=          115
     kinetic-energy cutoff     =      50.0000  Ry
     charge density cutoff     =     400.0000  Ry
     scf convergence threshold =      1.0E-04
     mixing beta               =       0.4000
     number of iterations used =            8  plain     mixing
     Exchange-correlation= SLA  PW   PBX  PBC
                           (   1   4   3   4   0   0   0)

     celldm(1)=  14.611631  celldm(2)=   0.000000  celldm(3)=   0.000000
     celldm(4)=   0.000000  celldm(5)=   0.000000  celldm(6)=   0.000000

     crystal axes: (cart. coord. in units of alat)
               a(1) = (   1.000000   0.000000   0.000000 )
               a(2) = (   0.500000   0.866025   0.000000 )
               a(3) = (   0.500000   0.288675   0.816497 )

     reciprocal axes: (cart. coord. in units 2 pi/alat)
               b(1) = (  1.000000 -0.577350 -0.408248 )
               b(2) = (  0.000000  1.154700 -0.408248 )
               b(3) = (  0.000000  0.000000  1.224745 )

     PseudoPot. # 1 for Ce read from file:
     ./pseudo/Ce.GGA-PBE-paw-v1.0.UPF
     MD5 check sum: f2b950f613061344c13339c8d844425d
     Pseudo is Projector augmented-wave + core cor, Zval = 12.0
     Generated using ATOMPAW code
     Shape of augmentation charge: BESSEL
     Using radial grid of 1102 points,  8 beta functions with:
                l(1) =   0
                l(2) =   0
                l(3) =   1
                l(4) =   1
                l(5) =   2
                l(6) =   2
                l(7) =   3
                l(8) =   3
     Q(r) pseudized with 0 coefficients

     PseudoPot. # 2 for O  read from file:
     ./pseudo/O.pbe-n-kjpaw_psl.0.1.UPF
     MD5 check sum: 0234752ac141de4415c5fc33072bef88
     Pseudo is Projector augmented-wave + core cor, Zval =  6.0
     Generated using "atomic" code by A. Dal Corso  v.5.0.99 svn rev. 10869
     Shape of augmentation charge: BESSEL
     Using radial grid of 1095 points,  4 beta functions with:
                l(1) =   0
                l(2) =   0
                l(3) =   1
                l(4) =   1
     Q(r) pseudized with 0 coefficients

     atomic species   valence    mass     pseudopotential
        Ce            12.00   140.11600     Ce( 1.00)
        O              6.00    15.99940     O ( 1.00)

     12 Sym. Ops., with inversion, found

   Cartesian axes

     site n.     atom                  positions (alat units)
         1           Ce  tau(   1) = (   0.0000000   0.0000000   0.0000000  )
         2           Ce  tau(   2) = (   0.2500000   0.1443376   0.4082483  )
         3           Ce  tau(   3) = (   0.2500000   0.4330127   0.0000000  )
         4           Ce  tau(   4) = (   0.4999999   0.5773503   0.4082483  )
         5           Ce  tau(   5) = (   0.5000000   0.0000000   0.0000000  )
         6           Ce  tau(   6) = (   0.7500000   0.1443376   0.4082483  )
         7           Ce  tau(   7) = (   0.7500000   0.4330127   0.0000000  )
         8           Ce  tau(   8) = (   0.9999999   0.5773503   0.4082483  )
         9           O   tau(   9) = (   0.7500000   0.4330127   0.3061862  )
        10           O   tau(  10) = (   0.9999999   0.5773503   0.7144345  )
        11           O   tau(  11) = (   0.9999999   0.8660254   0.3061862  )
        12           O   tau(  12) = (   1.2499999   1.0103630   0.7144345  )
        13           O   tau(  13) = (   1.2500000   0.4330127   0.3061862  )
        14           O   tau(  14) = (   1.4999999   0.5773503   0.7144345  )
        15           O   tau(  15) = (   1.4999999   0.8660254   0.3061862  )
        16           O   tau(  16) = (   1.7499999   1.0103630   0.7144345  )
        17           O   tau(  17) = (   0.2500000   0.1443376   0.1020621  )
        18           O   tau(  18) = (   0.5000000   0.2886751   0.5103104  )
        19           O   tau(  19) = (   0.5000000   0.5773503   0.1020621  )
        20           O   tau(  20) = (   0.7499999   0.7216879   0.5103104  )
        21           O   tau(  21) = (   0.7500000   0.1443376   0.1020621  )
        22           O   tau(  22) = (   1.0000000   0.2886751   0.5103104  )
        23           O   tau(  23) = (   1.0000000   0.5773503   0.1020621  )
        24           O   tau(  24) = (   1.2499999   0.7216879   0.5103104  )

     number of k points=    20  Methfessel-Paxton smearing, width (Ry)=  0.0100
                       cart. coord. in units 2pi/alat
        k(    1) = (   0.1250000  -0.0721688  -0.0510310), wk =   0.0625000
        k(    2) = (   0.1250000  -0.0721688   0.2551552), wk =   0.0625000
        k(    3) = (   0.1250000  -0.0721688  -0.6634034), wk =   0.0625000
        k(    4) = (   0.1250000  -0.0721688  -0.3572172), wk =   0.0625000
        k(    5) = (   0.1250000   0.2165064  -0.1530931), wk =   0.1250000
        k(    6) = (   0.1250000   0.2165064  -0.7654655), wk =   0.1250000
        k(    7) = (   0.1250000  -0.6495190   0.1530931), wk =   0.1250000
        k(    8) = (   0.1250000  -0.6495190   0.4592793), wk =   0.1250000
        k(    9) = (   0.1250000  -0.6495190  -0.4592793), wk =   0.1250000
        k(   10) = (   0.1250000  -0.6495190  -0.1530931), wk =   0.1250000
        k(   11) = (   0.1250000  -0.3608439   0.0510310), wk =   0.1250000
        k(   12) = (   0.1250000  -0.3608439   0.3572172), wk =   0.1250000
        k(   13) = (   0.1250000  -0.3608439  -0.5613414), wk =   0.1250000
        k(   14) = (   0.1250000  -0.3608439  -0.2551552), wk =   0.1250000
        k(   15) = (   0.3750000  -0.2165063  -0.1530931), wk =   0.0625000
        k(   16) = (   0.3750000  -0.2165063   0.1530931), wk =   0.0625000
        k(   17) = (   0.3750000  -0.2165063  -0.7654655), wk =   0.0625000
        k(   18) = (   0.3750000  -0.2165063  -0.4592793), wk =   0.0625000
        k(   19) = (   0.3750000  -0.5051814  -0.0510310), wk =   0.1250000
        k(   20) = (   0.3750000  -0.5051814   0.2551552), wk =   0.1250000

     Check: negative core charge=   -0.000002

     Initial potential from superposition of free atoms

     starting charge     191.9441, renormalised to     192.0000
     Starting wfcs are  320 randomized atomic wfcs
     Checking if some PAW data can be deallocated...

     Self-consistent Calculation

     iteration #  1     ecut=    50.00 Ry     beta= 0.40
     Davidson diagonalization with overlap
     ethr =  1.00E-02,  avg # of iterations =  1.0

     total energy              =   -4520.55317141 Ry
     estimated scf accuracy    <      13.45189059 Ry

     iteration #  2     ecut=    50.00 Ry     beta= 0.40
     Davidson diagonalization with overlap
     ethr =  7.01E-03,  avg # of iterations =  6.0
     Minimization algorithm failed to find Fermi energy: reverting to bisection
     Possible cause: smearing is larger than the electronic band-gap.

[...]

     iteration # 11     ecut=    50.00 Ry     beta= 0.40
     Davidson diagonalization with overlap
     c_bands:  3 eigenvalues not converged
     ethr =  3.13E-05,  avg # of iterations = 19.2

[...]

     iteration # 20     ecut=    50.00 Ry     beta= 0.40
     Davidson diagonalization with overlap
     c_bands:  1 eigenvalues not converged
     ethr =  4.74E-07,  avg # of iterations = 19.8

[...]

     total energy              =   -4526.71808641 Ry
     estimated scf accuracy    <       0.00012168 Ry

     iteration # 26     ecut=    50.00 Ry     beta= 0.40
     Davidson diagonalization with overlap
     ethr =  6.34E-08,  avg # of iterations =  5.0

     End of self-consistent calculation

          k = 0.1250-0.0722-0.0510 ( 13242 PWs)   bands (ev):

   -22.0118 -21.8438 -21.8344 -21.8344 -21.8342 -21.7782 -21.7782 -21.7780
    -8.0819  -8.0819  -8.0808  -7.7764  -7.7763  -7.7754  -7.7501  -5.9461
    -5.7978  -5.7978  -5.7965  -5.7413  -5.7413  -5.7400  -5.5835  -4.8559
    -4.7291  -4.7290  -4.7290  -4.5269  -4.5269  -4.5265  -4.4316  -4.4315
    -4.4315  -4.4107  -4.4107  -4.2142  -4.2141  -4.2138  -4.2109  -4.2109
    -4.0383  -1.9060  -1.8849  -1.8848  -1.8840  -1.2712  -1.2712  -1.2704
     6.7631   6.7631   6.7631   6.8175   6.8175   6.8785   7.6106   7.6106
     7.6793   7.6794   7.6803   7.6876   7.6883   7.6883   9.0865   9.0866
     9.0867   9.1166   9.1684   9.1684   9.1691   9.1850   9.1856   9.1856
     9.2517   9.2520   9.2520   9.3427   9.7058   9.7058   9.7168   9.7174
     9.7174   9.7730   9.7737   9.7737   9.8210   9.8210   9.8218   9.8581
     9.8582   9.8588   9.8797   9.8918   9.8919   9.8920   9.9029   9.9029
    12.3534  12.3536  12.3539  12.3846  12.3993  12.3994  12.3996  12.4709
    12.4712  12.4723  12.4785  12.4787  12.4818  12.5106  12.5112  12.5137
    12.5198  12.5204  12.5236

[...]

          k = 0.3750-0.5052 0.2552 ( 13166 PWs)   bands (ev):

   -21.9092 -21.8893 -21.8662 -21.8527 -21.8088 -21.7984 -21.7887 -21.7850
    -7.5019  -7.4798  -7.4711  -7.4557  -7.4383  -7.3724  -7.2505  -7.1616
    -7.1469  -7.1051  -7.0245  -6.8394  -6.2032  -5.9193  -5.7882  -5.5533
    -4.6782  -4.6671  -4.5682  -4.5586  -4.5087  -4.4724  -4.3973  -4.3590
    -4.0334  -4.0044  -3.7243  -3.5757  -2.9939  -2.8558  -2.8391  -2.8074
    -2.6701  -2.6531  -2.4279  -2.3800  -2.3666  -2.2982  -2.2834  -2.2433
     7.4755   7.5082   7.5544   7.5893   7.7222   7.7551   7.7788   7.8167
     7.8686   7.9010   7.9129   8.0177   8.1159   8.1228   8.1776   8.2396
     8.3176   8.3184   8.3368   8.4464   8.4534   8.5888   8.6151   8.7042
     8.7995   8.8712   8.8921   8.9529   9.2861   9.3853   9.4098   9.4753
     9.4937   9.5490   9.5888   9.6610   9.7094   9.7125   9.9483  10.0356
    10.2146  10.2152  10.2197  10.2822  10.3132  10.3675  10.3871  10.3932
    12.4070  12.4080  12.4135  12.4220  12.4678  12.4778  12.5057  12.5175
    12.5218  12.5223  12.5340  12.5414  12.5577  12.5609  12.5758  12.5999
    12.6023  12.6069  12.6141

     the Fermi energy is    11.6818 ev

!    total energy              =   -4526.71811040 Ry

     total all-electron energy =     -6268.268389 Ry
     estimated scf accuracy    <       0.00000739 Ry
     smearing contrib. (-TS)   =       0.00000000 Ry
     internal energy E=F+TS    =   -4526.71811040 Ry

     The total energy is F=E-TS. E is the sum of the following terms:
     one-electron contribution =     -99.12228762 Ry
     hartree contribution      =     198.76522892 Ry
     xc contribution           =    -202.41520882 Ry
     ewald contribution        =   -1006.38839996 Ry
     one-center paw contrib.   =   -3417.55744291 Ry

     convergence has been achieved in  26 iterations

     Writing all to output data dir ./out/CeO2.save/

     General routines

     Parallel routines

   This run was terminated on:   0:21:13  13Oct2022

   JOB DONE.

                  Resource Usage on 2022-10-13 00:21:16:
   Job Id:             60242104.gadi-pbs
   Project:            jx00
   Exit Status:        0
   Service Units:      3.27
   NCPUs Requested:    40                     NCPUs Used: 40